p tw 106 116
1 2
2 19
3 10
3 97
4 8
5 6
6 7
7 8
8 9
10 5
11 12
12 13
13 14
14 15
15 16
16 17
17 18
18 20
19 30
20 21
21 22
22 23
23 24
23 25
24 8
25 26
26 27
27 28
28 29
29 31
30 41
31 32
32 33
32 36
33 34
34 35
35 94
36 37
37 38
38 39
39 40
40 42
41 52
42 43
43 44
43 47
44 45
45 46
46 94
47 48
48 49
49 50
50 51
51 53
52 63
53 54
54 55
54 58
55 56
56 57
57 94
58 59
59 60
60 61
61 62
62 64
63 74
63 11
64 65
65 66
65 69
66 67
67 68
68 94
69 70
70 71
71 72
72 73
73 75
74 85
75 76
76 77
76 80
77 78
78 79
79 94
80 81
81 82
82 83
83 84
84 86
85 96
85 13
86 87
87 88
87 91
88 89
89 90
90 94
91 92
92 93
93 94
94 95
95 97
96 3
97 98
98 99
99 100
100 101
101 102
102 103
103 104
104 105
105 106
106 4
106 5
